50

97 12 299
97 29 296
96 35 289
94 46 354
93 6 343
91 2 360
89 22 302
89 34 297
86 16 345
83 3 338
79 12 245
78 16 252
77 9 330
77 13 300
77 10 246
75 5 299
75 35 298
74 22 316
71 32 313
68 12 317
68 3 247
67 7 254
65 20 343
63 22 355
61 7 317
61 27 344
58 14 238
57 11 339
56 10 313
54 19 284
48 22 343
46 1 335
44 10 341
43 8 280
41 5 290
41 12 237
40 17 152
38 2 343
36 17 357
36 8 249
35 9 173
35 15 198
35 11 250
35 3 321
35 6 163
34 8 106
33 10 225
33 7 298
33 5 310
31 13 260
